p cnf 748 2810
1 0
-2 0
-3 0
-4 0
-5 0
-6 0
-7 0
-8 0
-9 0
-10 0
-11 0
-12 0
-13 0
-14 0
-15 0
-16 0
-17 0
-18 0
-19 0
-20 0
-21 0
-22 0
-23 0
-24 0
-25 0
-26 0
-27 0
-28 0
-29 0
-30 0
-31 0
-32 0
-33 0
-34 0
-35 0
-36 0
-37 0
-38 0
-39 0
-40 0
41 42 43 44 0
-41 -42 0
-41 -43 0
-41 -44 0
-42 -43 0
-42 -44 0
-43 -44 0
45 -1 -46 0
1 -45 -46 0
-45 -1 46 0
1 45 46 0
-41 -46 0
1 -45 -47 0
45 -1 -47 0
47 -1 -45 0
47 1 45 0
-42 47 0
-43 47 0
-44 47 0
48 -2 -49 0
2 -48 -49 0
-48 -2 49 0
2 48 49 0
-41 -49 0
2 -50 -51 0
50 -2 -51 0
51 -2 -50 0
51 2 50 0
-42 51 0
-45 52 0
-48 52 0
-50 52 0
45 48 50 -52 0
2 -52 -53 0
-2 52 -53 0
-2 -52 53 0
2 52 53 0
-43 53 0
45 54 0
48 54 0
50 54 0
-45 -48 -50 -54 0
-2 54 -55 0
2 -54 -55 0
55 -54 -2 0
2 54 55 0
-44 -55 0
50 -56 -57 0
56 -50 -57 0
-50 -56 57 0
50 56 57 0
-41 -57 0
-45 56 -58 0
45 -56 -58 0
58 -56 -45 0
58 56 45 0
-42 58 0
-45 59 0
-50 59 0
45 50 -59 0
56 -59 -60 0
-56 59 -60 0
-56 -59 60 0
56 59 60 0
-43 60 0
45 61 0
50 61 0
-45 -50 -61 0
-56 61 -62 0
56 -61 -62 0
62 -61 -56 0
56 61 62 0
-44 -62 0
63 -3 -64 0
3 -63 -64 0
-63 -3 64 0
3 63 64 0
-41 -64 0
3 -65 -66 0
65 -3 -66 0
66 -3 -65 0
66 3 65 0
-42 66 0
-63 67 0
-65 67 0
-68 67 0
63 65 68 -67 0
3 -67 -69 0
-3 67 -69 0
-3 -67 69 0
3 67 69 0
-43 69 0
63 70 0
65 70 0
68 70 0
-63 -65 -68 -70 0
-3 70 -71 0
3 -70 -71 0
71 -70 -3 0
3 70 71 0
-44 -71 0
65 -72 -73 0
72 -65 -73 0
-65 -72 73 0
65 72 73 0
-41 -73 0
72 -68 -74 0
68 -72 -74 0
74 -72 -68 0
74 72 68 0
-42 74 0
72 -67 -75 0
-72 67 -75 0
-72 -67 75 0
72 67 75 0
-43 75 0
-72 70 -76 0
72 -70 -76 0
76 -70 -72 0
72 70 76 0
-44 -76 0
68 -77 -78 0
77 -68 -78 0
-68 -77 78 0
68 77 78 0
-41 -78 0
-63 77 -79 0
63 -77 -79 0
79 -77 -63 0
79 77 63 0
-42 79 0
77 -67 -80 0
-77 67 -80 0
-77 -67 80 0
77 67 80 0
-43 80 0
-77 70 -81 0
77 -70 -81 0
81 -70 -77 0
77 70 81 0
-44 -81 0
82 -4 -83 0
4 -82 -83 0
-82 -4 83 0
4 82 83 0
-41 -83 0
-68 4 -84 0
68 -4 -84 0
84 -4 -68 0
84 4 68 0
-42 84 0
-63 85 0
-65 85 0
-68 85 0
-82 85 0
63 65 68 82 -85 0
4 -85 -86 0
-4 85 -86 0
-4 -85 86 0
4 85 86 0
-43 86 0
63 87 0
65 87 0
68 87 0
82 87 0
-88 0
-4 87 -89 0
4 -87 -89 0
89 -87 -4 0
4 87 89 0
-44 -89 0
90 -5 -91 0
5 -90 -91 0
-90 -5 91 0
5 90 91 0
-41 -91 0
5 -92 -93 0
92 -5 -93 0
93 -5 -92 0
93 5 92 0
-42 93 0
-90 94 0
-92 94 0
-95 94 0
-96 94 0
90 92 95 96 -94 0
5 -94 -97 0
-5 94 -97 0
-5 -94 97 0
5 94 97 0
-43 97 0
90 98 0
92 98 0
95 98 0
96 98 0
-99 0
-5 98 -100 0
5 -98 -100 0
100 -98 -5 0
5 98 100 0
-44 -100 0
92 -101 -102 0
101 -92 -102 0
-92 -101 102 0
92 101 102 0
-41 -102 0
101 -95 -103 0
95 -101 -103 0
103 -101 -95 0
103 101 95 0
-42 103 0
-92 104 0
-95 104 0
-96 104 0
92 95 96 -104 0
101 -104 -105 0
-101 104 -105 0
-101 -104 105 0
101 104 105 0
-43 105 0
92 106 0
95 106 0
96 106 0
-92 -95 -96 -106 0
-101 106 -107 0
101 -106 -107 0
107 -106 -101 0
101 106 107 0
-44 -107 0
95 -6 -108 0
6 -95 -108 0
-95 -6 108 0
95 6 108 0
-41 -108 0
6 -96 -109 0
96 -6 -109 0
109 -6 -96 0
109 6 96 0
-42 109 0
-95 110 0
-96 110 0
95 96 -110 0
6 -110 -111 0
-6 110 -111 0
-6 -110 111 0
6 110 111 0
-43 111 0
95 112 0
96 112 0
-95 -96 -112 0
-6 112 -113 0
6 -112 -113 0
113 -112 -6 0
6 112 113 0
-44 -113 0
96 -7 -114 0
7 -96 -114 0
-96 -7 114 0
96 7 114 0
-41 -114 0
-95 7 -115 0
95 -7 -115 0
115 -7 -95 0
115 7 95 0
-42 115 0
-96 116 0
-95 116 0
96 95 -116 0
7 -116 -117 0
-7 116 -117 0
-7 -116 117 0
7 116 117 0
-43 117 0
96 118 0
95 118 0
-95 -96 -118 0
-7 118 -119 0
7 -118 -119 0
119 -118 -7 0
7 118 119 0
-44 -119 0
120 -8 -121 0
8 -120 -121 0
-120 -8 121 0
8 120 121 0
-41 -121 0
8 -122 -123 0
122 -8 -123 0
123 -8 -122 0
123 8 122 0
-42 123 0
-120 124 0
-122 124 0
-125 124 0
-126 124 0
-127 124 0
-128 124 0
-129 124 0
-130 124 0
131 0
8 -124 -132 0
-8 124 -132 0
-8 -124 132 0
8 124 132 0
-43 132 0
120 133 0
122 133 0
125 133 0
126 133 0
127 133 0
128 133 0
129 133 0
130 133 0
-134 0
-8 133 -135 0
8 -133 -135 0
135 -133 -8 0
8 133 135 0
-44 -135 0
122 -136 -137 0
136 -122 -137 0
-122 -136 137 0
122 136 137 0
-41 -137 0
136 -125 -138 0
125 -136 -138 0
138 -136 -125 0
138 136 125 0
-42 138 0
-122 139 0
-125 139 0
-126 139 0
-127 139 0
-128 139 0
-129 139 0
-130 139 0
140 0
136 -139 -141 0
-136 139 -141 0
-136 -139 141 0
136 139 141 0
-43 141 0
122 142 0
125 142 0
126 142 0
127 142 0
128 142 0
129 142 0
130 142 0
-143 0
-136 142 -144 0
136 -142 -144 0
144 -142 -136 0
136 142 144 0
-44 -144 0
125 -145 -146 0
145 -125 -146 0
-125 -145 146 0
125 145 146 0
-41 -146 0
145 -126 -147 0
126 -145 -147 0
147 -145 -126 0
147 145 126 0
-42 147 0
-125 148 0
-126 148 0
-127 148 0
-128 148 0
-129 148 0
-130 148 0
149 0
145 -148 -150 0
-145 148 -150 0
-145 -148 150 0
145 148 150 0
-43 150 0
125 151 0
126 151 0
127 151 0
128 151 0
129 151 0
130 151 0
-152 0
-145 151 -153 0
145 -151 -153 0
153 -151 -145 0
145 151 153 0
-44 -153 0
126 -154 -155 0
154 -126 -155 0
-126 -154 155 0
126 154 155 0
-41 -155 0
154 -127 -156 0
127 -154 -156 0
156 -154 -127 0
156 154 127 0
-42 156 0
-126 157 0
-127 157 0
-128 157 0
-129 157 0
-130 157 0
126 127 128 129 130 -157 0
154 -157 -158 0
-154 157 -158 0
-154 -157 158 0
154 157 158 0
-43 158 0
126 159 0
127 159 0
128 159 0
129 159 0
130 159 0
-160 0
-154 159 -161 0
154 -159 -161 0
161 -159 -154 0
154 159 161 0
-44 -161 0
127 -162 -163 0
162 -127 -163 0
-127 -162 163 0
127 162 163 0
-41 -163 0
162 -128 -164 0
128 -162 -164 0
164 -162 -128 0
164 162 128 0
-42 164 0
-127 165 0
-128 165 0
-129 165 0
-130 165 0
127 128 129 130 -165 0
162 -165 -166 0
-162 165 -166 0
-162 -165 166 0
162 165 166 0
-43 166 0
127 167 0
128 167 0
129 167 0
130 167 0
-168 0
-162 167 -169 0
162 -167 -169 0
169 -167 -162 0
162 167 169 0
-44 -169 0
128 -170 -171 0
170 -128 -171 0
-128 -170 171 0
128 170 171 0
-41 -171 0
170 -129 -172 0
129 -170 -172 0
172 -170 -129 0
172 170 129 0
-42 172 0
170 -165 -173 0
-170 165 -173 0
-170 -165 173 0
170 165 173 0
-43 173 0
-170 167 -174 0
170 -167 -174 0
174 -167 -170 0
170 167 174 0
-44 -174 0
129 -175 -176 0
175 -129 -176 0
-129 -175 176 0
129 175 176 0
-41 -176 0
175 -130 -177 0
130 -175 -177 0
177 -175 -130 0
177 175 130 0
-42 177 0
175 -165 -178 0
-175 165 -178 0
-175 -165 178 0
175 165 178 0
-43 178 0
-175 167 -179 0
175 -167 -179 0
179 -167 -175 0
175 167 179 0
-44 -179 0
130 -180 -181 0
180 -130 -181 0
-130 -180 181 0
130 180 181 0
-41 -181 0
-127 180 -182 0
127 -180 -182 0
182 -180 -127 0
182 180 127 0
-42 182 0
180 -165 -183 0
-180 165 -183 0
-180 -165 183 0
180 165 183 0
-43 183 0
-180 167 -184 0
180 -167 -184 0
184 -167 -180 0
180 167 184 0
-44 -184 0
185 -9 -186 0
9 -185 -186 0
-185 -9 186 0
9 185 186 0
-41 -186 0
9 -187 -188 0
187 -9 -188 0
188 -9 -187 0
188 9 187 0
-42 188 0
-127 189 0
-128 189 0
-129 189 0
-130 189 0
-185 189 0
-187 189 0
190 0
9 -189 -191 0
-9 189 -191 0
-9 -189 191 0
9 189 191 0
-43 191 0
127 192 0
128 192 0
129 192 0
130 192 0
185 192 0
187 192 0
-193 0
-9 192 -194 0
9 -192 -194 0
194 -192 -9 0
9 192 194 0
-44 -194 0
187 -195 -196 0
195 -187 -196 0
-187 -195 196 0
187 195 196 0
-41 -196 0
-128 195 -197 0
128 -195 -197 0
197 -195 -128 0
197 195 128 0
-42 197 0
-127 198 0
-128 198 0
-129 198 0
-130 198 0
-187 198 0
127 128 129 130 187 -198 0
195 -198 -199 0
-195 198 -199 0
-195 -198 199 0
195 198 199 0
-43 199 0
127 200 0
128 200 0
129 200 0
130 200 0
187 200 0
-201 0
-195 200 -202 0
195 -200 -202 0
202 -200 -195 0
195 200 202 0
-44 -202 0
203 -10 -204 0
10 -203 -204 0
-203 -10 204 0
10 203 204 0
-41 -204 0
10 -205 -206 0
205 -10 -206 0
206 -10 -205 0
206 10 205 0
-42 206 0
-203 207 0
-205 207 0
-208 207 0
-209 207 0
-210 207 0
-211 207 0
-212 207 0
213 0
10 -207 -214 0
-10 207 -214 0
-10 -207 214 0
10 207 214 0
-43 214 0
203 215 0
205 215 0
208 215 0
209 215 0
210 215 0
211 215 0
212 215 0
-216 0
-10 215 -217 0
10 -215 -217 0
217 -215 -10 0
10 215 217 0
-44 -217 0
205 -218 -219 0
218 -205 -219 0
-205 -218 219 0
205 218 219 0
-41 -219 0
218 -208 -220 0
208 -218 -220 0
220 -218 -208 0
220 218 208 0
-42 220 0
-205 221 0
-208 221 0
-209 221 0
-210 221 0
-211 221 0
-212 221 0
222 0
218 -221 -223 0
-218 221 -223 0
-218 -221 223 0
218 221 223 0
-43 223 0
205 224 0
208 224 0
209 224 0
210 224 0
211 224 0
212 224 0
-225 0
-218 224 -226 0
218 -224 -226 0
226 -224 -218 0
218 224 226 0
-44 -226 0
208 -227 -228 0
227 -208 -228 0
-208 -227 228 0
208 227 228 0
-41 -228 0
227 -209 -229 0
209 -227 -229 0
229 -227 -209 0
229 227 209 0
-42 229 0
-208 230 0
-209 230 0
-210 230 0
-211 230 0
-212 230 0
208 209 210 211 212 -230 0
227 -230 -231 0
-227 230 -231 0
-227 -230 231 0
227 230 231 0
-43 231 0
208 232 0
209 232 0
210 232 0
211 232 0
212 232 0
-233 0
-227 232 -234 0
227 -232 -234 0
234 -232 -227 0
227 232 234 0
-44 -234 0
209 -235 -236 0
235 -209 -236 0
-209 -235 236 0
209 235 236 0
-41 -236 0
235 -210 -237 0
210 -235 -237 0
237 -235 -210 0
237 235 210 0
-42 237 0
-209 238 0
-210 238 0
-211 238 0
-212 238 0
209 210 211 212 -238 0
235 -238 -239 0
-235 238 -239 0
-235 -238 239 0
235 238 239 0
-43 239 0
209 240 0
210 240 0
211 240 0
212 240 0
-241 0
-235 240 -242 0
235 -240 -242 0
242 -240 -235 0
235 240 242 0
-44 -242 0
210 -243 -244 0
243 -210 -244 0
-210 -243 244 0
210 243 244 0
-41 -244 0
243 -211 -245 0
211 -243 -245 0
245 -243 -211 0
245 243 211 0
-42 245 0
243 -238 -246 0
-243 238 -246 0
-243 -238 246 0
243 238 246 0
-43 246 0
-243 240 -247 0
243 -240 -247 0
247 -240 -243 0
243 240 247 0
-44 -247 0
211 -248 -249 0
248 -211 -249 0
-211 -248 249 0
211 248 249 0
-41 -249 0
248 -212 -250 0
212 -248 -250 0
250 -248 -212 0
250 248 212 0
-42 250 0
248 -238 -251 0
-248 238 -251 0
-248 -238 251 0
248 238 251 0
-43 251 0
-248 240 -252 0
248 -240 -252 0
252 -240 -248 0
248 240 252 0
-44 -252 0
212 -253 -254 0
253 -212 -254 0
-212 -253 254 0
212 253 254 0
-41 -254 0
-209 253 -255 0
209 -253 -255 0
255 -253 -209 0
255 253 209 0
-42 255 0
253 -238 -256 0
-253 238 -256 0
-253 -238 256 0
253 238 256 0
-43 256 0
-253 240 -257 0
253 -240 -257 0
257 -240 -253 0
253 240 257 0
-44 -257 0
258 -11 -259 0
11 -258 -259 0
-258 -11 259 0
11 258 259 0
-41 -259 0
11 -260 -261 0
260 -11 -261 0
261 -11 -260 0
261 11 260 0
-42 261 0
-258 262 0
-260 262 0
258 260 -262 0
11 -262 -263 0
-11 262 -263 0
-11 -262 263 0
11 262 263 0
-43 263 0
258 264 0
260 264 0
-258 -260 -264 0
-11 264 -265 0
11 -264 -265 0
265 -264 -11 0
11 264 265 0
-44 -265 0
260 -12 -266 0
12 -260 -266 0
-260 -12 266 0
260 12 266 0
-41 -266 0
12 -260 -267 0
260 -12 -267 0
267 -12 -260 0
267 12 260 0
-42 267 0
-43 267 0
-44 267 0
268 -13 -269 0
13 -268 -269 0
-268 -13 269 0
13 268 269 0
-41 -269 0
-185 13 -270 0
185 -13 -270 0
270 -13 -185 0
270 13 185 0
-42 270 0
-127 271 0
-128 271 0
-129 271 0
-130 271 0
-185 271 0
-187 271 0
-268 271 0
272 0
13 -271 -273 0
-13 271 -273 0
-13 -271 273 0
13 271 273 0
-43 273 0
127 274 0
128 274 0
129 274 0
130 274 0
185 274 0
187 274 0
268 274 0
-275 0
-13 274 -276 0
13 -274 -276 0
276 -274 -13 0
13 274 276 0
-44 -276 0
277 -14 -278 0
14 -277 -278 0
-277 -14 278 0
14 277 278 0
-41 -278 0
14 -279 -280 0
279 -14 -280 0
280 -14 -279 0
280 14 279 0
-42 280 0
-258 281 0
-260 281 0
-277 281 0
-279 281 0
258 260 277 279 -281 0
14 -281 -282 0
-14 281 -282 0
-14 -281 282 0
14 281 282 0
-43 282 0
258 283 0
260 283 0
277 283 0
279 283 0
-284 0
-14 283 -285 0
14 -283 -285 0
285 -283 -14 0
14 283 285 0
-44 -285 0
279 -15 -286 0
15 -279 -286 0
-279 -15 286 0
279 15 286 0
-41 -286 0
-258 15 -287 0
258 -15 -287 0
287 -15 -258 0
287 15 258 0
-42 287 0
-258 288 0
-260 288 0
-279 288 0
258 260 279 -288 0
15 -288 -289 0
-15 288 -289 0
-15 -288 289 0
15 288 289 0
-43 289 0
258 290 0
260 290 0
279 290 0
-258 -260 -279 -290 0
-15 290 -291 0
15 -290 -291 0
291 -290 -15 0
15 290 291 0
-44 -291 0
292 -16 -293 0
16 -292 -293 0
-292 -16 293 0
16 292 293 0
-41 -293 0
16 -294 -295 0
294 -16 -295 0
295 -16 -294 0
295 16 294 0
-42 295 0
-209 296 0
-210 296 0
-211 296 0
-212 296 0
-292 296 0
-294 296 0
297 0
16 -296 -298 0
-16 296 -298 0
-16 -296 298 0
16 296 298 0
-43 298 0
209 299 0
210 299 0
211 299 0
212 299 0
292 299 0
294 299 0
-300 0
-16 299 -301 0
16 -299 -301 0
301 -299 -16 0
16 299 301 0
-44 -301 0
294 -302 -303 0
302 -294 -303 0
-294 -302 303 0
294 302 303 0
-41 -303 0
-210 302 -304 0
210 -302 -304 0
304 -302 -210 0
304 302 210 0
-42 304 0
-209 305 0
-210 305 0
-211 305 0
-212 305 0
-294 305 0
209 210 211 212 294 -305 0
302 -305 -306 0
-302 305 -306 0
-302 -305 306 0
302 305 306 0
-43 306 0
209 307 0
210 307 0
211 307 0
212 307 0
294 307 0
-308 0
-302 307 -309 0
302 -307 -309 0
309 -307 -302 0
302 307 309 0
-44 -309 0
310 -17 -311 0
17 -310 -311 0
-310 -17 311 0
17 310 311 0
-41 -311 0
-90 17 -312 0
90 -17 -312 0
312 -17 -90 0
312 17 90 0
-42 312 0
-90 313 0
-92 313 0
-95 313 0
-96 313 0
-310 313 0
90 92 95 96 310 -313 0
17 -313 -314 0
-17 313 -314 0
-17 -313 314 0
17 313 314 0
-43 314 0
90 315 0
92 315 0
95 315 0
96 315 0
310 315 0
-316 0
-17 315 -317 0
17 -315 -317 0
317 -315 -17 0
17 315 317 0
-44 -317 0
318 -18 -319 0
18 -318 -319 0
-318 -18 319 0
18 318 319 0
-41 -319 0
-129 18 -320 0
129 -18 -320 0
320 -18 -129 0
320 18 129 0
-42 320 0
-127 321 0
-128 321 0
-129 321 0
-130 321 0
-318 321 0
127 128 129 130 318 -321 0
18 -321 -322 0
-18 321 -322 0
-18 -321 322 0
18 321 322 0
-43 322 0
127 323 0
128 323 0
129 323 0
130 323 0
318 323 0
-324 0
-18 323 -325 0
18 -323 -325 0
325 -323 -18 0
18 323 325 0
-44 -325 0
326 -19 -327 0
19 -326 -327 0
-326 -19 327 0
19 326 327 0
-41 -327 0
19 -328 -329 0
328 -19 -329 0
329 -19 -328 0
329 19 328 0
-42 329 0
-127 330 0
-128 330 0
-129 330 0
-130 330 0
-187 330 0
-326 330 0
-328 330 0
331 0
19 -330 -332 0
-19 330 -332 0
-19 -330 332 0
19 330 332 0
-43 332 0
127 333 0
128 333 0
129 333 0
130 333 0
187 333 0
326 333 0
328 333 0
-334 0
-19 333 -335 0
19 -333 -335 0
335 -333 -19 0
19 333 335 0
-44 -335 0
328 -336 -337 0
336 -328 -337 0
-328 -336 337 0
328 336 337 0
-41 -337 0
-187 336 -338 0
187 -336 -338 0
338 -336 -187 0
338 336 187 0
-42 338 0
-127 339 0
-128 339 0
-129 339 0
-130 339 0
-187 339 0
-328 339 0
340 0
336 -339 -341 0
-336 339 -341 0
-336 -339 341 0
336 339 341 0
-43 341 0
127 342 0
128 342 0
129 342 0
130 342 0
187 342 0
328 342 0
-343 0
-336 342 -344 0
336 -342 -344 0
344 -342 -336 0
336 342 344 0
-44 -344 0
345 -20 -346 0
20 -345 -346 0
-345 -20 346 0
20 345 346 0
-41 -346 0
20 -347 -348 0
347 -20 -348 0
348 -20 -347 0
348 20 347 0
-42 348 0
-63 349 0
-65 349 0
-68 349 0
-82 349 0
-345 349 0
-347 349 0
-350 349 0
351 0
20 -349 -352 0
-20 349 -352 0
-20 -349 352 0
20 349 352 0
-43 352 0
63 353 0
65 353 0
68 353 0
82 353 0
345 353 0
347 353 0
350 353 0
-354 0
-20 353 -355 0
20 -353 -355 0
355 -353 -20 0
20 353 355 0
-44 -355 0
347 -21 -356 0
21 -347 -356 0
-347 -21 356 0
347 21 356 0
-41 -356 0
21 -350 -357 0
350 -21 -357 0
357 -21 -350 0
357 21 350 0
-42 357 0
-63 358 0
-65 358 0
-68 358 0
-82 358 0
-347 358 0
-350 358 0
63 65 68 82 347 350 -358 0
21 -358 -359 0
-21 358 -359 0
-21 -358 359 0
21 358 359 0
-43 359 0
63 360 0
65 360 0
68 360 0
82 360 0
347 360 0
350 360 0
-361 0
-21 360 -362 0
21 -360 -362 0
362 -360 -21 0
21 360 362 0
-44 -362 0
350 -363 -364 0
363 -350 -364 0
-350 -363 364 0
350 363 364 0
-41 -364 0
-82 363 -365 0
82 -363 -365 0
365 -363 -82 0
365 363 82 0
-42 365 0
-63 366 0
-65 366 0
-68 366 0
-82 366 0
-350 366 0
63 65 68 82 350 -366 0
363 -366 -367 0
-363 366 -367 0
-363 -366 367 0
363 366 367 0
-43 367 0
63 368 0
65 368 0
68 368 0
82 368 0
350 368 0
-369 0
-363 368 -370 0
363 -368 -370 0
370 -368 -363 0
363 368 370 0
-44 -370 0
371 -22 -372 0
22 -371 -372 0
-371 -22 372 0
22 371 372 0
-41 -372 0
-92 22 -373 0
92 -22 -373 0
373 -22 -92 0
373 22 92 0
-42 373 0
-92 374 0
-95 374 0
-96 374 0
-371 374 0
92 95 96 371 -374 0
22 -374 -375 0
-22 374 -375 0
-22 -374 375 0
22 374 375 0
-43 375 0
92 376 0
95 376 0
96 376 0
371 376 0
-377 0
-22 376 -378 0
22 -376 -378 0
378 -376 -22 0
22 376 378 0
-44 -378 0
379 -23 -380 0
23 -379 -380 0
-379 -23 380 0
23 379 380 0
-41 -380 0
23 -381 -382 0
381 -23 -382 0
382 -23 -381 0
382 23 381 0
-42 382 0
-379 383 0
-381 383 0
-384 383 0
-385 383 0
-386 383 0
-387 383 0
-388 383 0
389 0
23 -383 -390 0
-23 383 -390 0
-23 -383 390 0
23 383 390 0
-43 390 0
379 391 0
381 391 0
384 391 0
385 391 0
386 391 0
387 391 0
388 391 0
-392 0
-23 391 -393 0
23 -391 -393 0
393 -391 -23 0
23 391 393 0
-44 -393 0
381 -394 -395 0
394 -381 -395 0
-381 -394 395 0
381 394 395 0
-41 -395 0
394 -384 -396 0
384 -394 -396 0
396 -394 -384 0
396 394 384 0
-42 396 0
-381 397 0
-384 397 0
-385 397 0
-386 397 0
-387 397 0
-388 397 0
398 0
394 -397 -399 0
-394 397 -399 0
-394 -397 399 0
394 397 399 0
-43 399 0
381 400 0
384 400 0
385 400 0
386 400 0
387 400 0
388 400 0
-401 0
-394 400 -402 0
394 -400 -402 0
402 -400 -394 0
394 400 402 0
-44 -402 0
384 -403 -404 0
403 -384 -404 0
-384 -403 404 0
384 403 404 0
-41 -404 0
403 -385 -405 0
385 -403 -405 0
405 -403 -385 0
405 403 385 0
-42 405 0
-384 406 0
-385 406 0
-386 406 0
-387 406 0
-388 406 0
384 385 386 387 388 -406 0
403 -406 -407 0
-403 406 -407 0
-403 -406 407 0
403 406 407 0
-43 407 0
384 408 0
385 408 0
386 408 0
387 408 0
388 408 0
-409 0
-403 408 -410 0
403 -408 -410 0
410 -408 -403 0
403 408 410 0
-44 -410 0
385 -411 -412 0
411 -385 -412 0
-385 -411 412 0
385 411 412 0
-41 -412 0
411 -386 -413 0
386 -411 -413 0
413 -411 -386 0
413 411 386 0
-42 413 0
-385 414 0
-386 414 0
-387 414 0
-388 414 0
385 386 387 388 -414 0
411 -414 -415 0
-411 414 -415 0
-411 -414 415 0
411 414 415 0
-43 415 0
385 416 0
386 416 0
387 416 0
388 416 0
-417 0
-411 416 -418 0
411 -416 -418 0
418 -416 -411 0
411 416 418 0
-44 -418 0
386 -419 -420 0
419 -386 -420 0
-386 -419 420 0
386 419 420 0
-41 -420 0
419 -387 -421 0
387 -419 -421 0
421 -419 -387 0
421 419 387 0
-42 421 0
-386 422 0
-387 422 0
-388 422 0
386 387 388 -422 0
419 -422 -423 0
-419 422 -423 0
-419 -422 423 0
419 422 423 0
-43 423 0
386 424 0
387 424 0
388 424 0
-386 -387 -388 -424 0
-419 424 -425 0
419 -424 -425 0
425 -424 -419 0
419 424 425 0
-44 -425 0
387 -426 -427 0
426 -387 -427 0
-387 -426 427 0
387 426 427 0
-41 -427 0
426 -388 -428 0
388 -426 -428 0
428 -426 -388 0
428 426 388 0
-42 428 0
426 -422 -429 0
-426 422 -429 0
-426 -422 429 0
426 422 429 0
-43 429 0
-426 424 -430 0
426 -424 -430 0
430 -424 -426 0
426 424 430 0
-44 -430 0
388 -431 -432 0
431 -388 -432 0
-388 -431 432 0
388 431 432 0
-41 -432 0
-386 431 -433 0
386 -431 -433 0
433 -431 -386 0
433 431 386 0
-42 433 0
431 -422 -434 0
-431 422 -434 0
-431 -422 434 0
431 422 434 0
-43 434 0
-431 424 -435 0
431 -424 -435 0
435 -424 -431 0
431 424 435 0
-44 -435 0
436 -24 -437 0
24 -436 -437 0
-436 -24 437 0
24 436 437 0
-41 -437 0
24 -438 -439 0
438 -24 -439 0
439 -24 -438 0
439 24 438 0
-42 439 0
-386 440 0
-387 440 0
-388 440 0
-436 440 0
-438 440 0
386 387 388 436 438 -440 0
24 -440 -441 0
-24 440 -441 0
-24 -440 441 0
24 440 441 0
-43 441 0
386 442 0
387 442 0
388 442 0
436 442 0
438 442 0
-443 0
-24 442 -444 0
24 -442 -444 0
444 -442 -24 0
24 442 444 0
-44 -444 0
438 -445 -446 0
445 -438 -446 0
-438 -445 446 0
438 445 446 0
-41 -446 0
-387 445 -447 0
387 -445 -447 0
447 -445 -387 0
447 445 387 0
-42 447 0
-386 448 0
-387 448 0
-388 448 0
-438 448 0
386 387 388 438 -448 0
445 -448 -449 0
-445 448 -449 0
-445 -448 449 0
445 448 449 0
-43 449 0
386 450 0
387 450 0
388 450 0
438 450 0
-451 0
-445 450 -452 0
445 -450 -452 0
452 -450 -445 0
445 450 452 0
-44 -452 0
453 -25 -454 0
25 -453 -454 0
-453 -25 454 0
25 453 454 0
-41 -454 0
25 -455 -456 0
455 -25 -456 0
456 -25 -455 0
456 25 455 0
-42 456 0
-92 457 0
-95 457 0
-96 457 0
-371 457 0
-453 457 0
-455 457 0
92 95 96 371 453 455 -457 0
25 -457 -458 0
-25 457 -458 0
-25 -457 458 0
25 457 458 0
-43 458 0
92 459 0
95 459 0
96 459 0
371 459 0
453 459 0
455 459 0
-460 0
-25 459 -461 0
25 -459 -461 0
461 -459 -25 0
25 459 461 0
-44 -461 0
455 -462 -463 0
462 -455 -463 0
-455 -462 463 0
455 462 463 0
-41 -463 0
-371 462 -464 0
371 -462 -464 0
464 -462 -371 0
464 462 371 0
-42 464 0
-92 465 0
-95 465 0
-96 465 0
-371 465 0
-455 465 0
92 95 96 371 455 -465 0
462 -465 -466 0
-462 465 -466 0
-462 -465 466 0
462 465 466 0
-43 466 0
92 467 0
95 467 0
96 467 0
371 467 0
455 467 0
-468 0
-462 467 -469 0
462 -467 -469 0
469 -467 -462 0
462 467 469 0
-44 -469 0
470 -26 -471 0
26 -470 -471 0
-470 -26 471 0
26 470 471 0
-41 -471 0
26 -472 -473 0
472 -26 -473 0
473 -26 -472 0
473 26 472 0
-42 473 0
-92 474 0
-95 474 0
-96 474 0
-371 474 0
-470 474 0
-472 474 0
92 95 96 371 470 472 -474 0
26 -474 -475 0
-26 474 -475 0
-26 -474 475 0
26 474 475 0
-43 475 0
92 476 0
95 476 0
96 476 0
371 476 0
470 476 0
472 476 0
-477 0
-26 476 -478 0
26 -476 -478 0
478 -476 -26 0
26 476 478 0
-44 -478 0
472 -27 -479 0
27 -472 -479 0
-472 -27 479 0
472 27 479 0
-41 -479 0
-371 27 -480 0
371 -27 -480 0
480 -27 -371 0
480 27 371 0
-42 480 0
-92 481 0
-95 481 0
-96 481 0
-371 481 0
-472 481 0
92 95 96 371 472 -481 0
27 -481 -482 0
-27 481 -482 0
-27 -481 482 0
27 481 482 0
-43 482 0
92 483 0
95 483 0
96 483 0
371 483 0
472 483 0
-484 0
-27 483 -485 0
27 -483 -485 0
485 -483 -27 0
27 483 485 0
-44 -485 0
486 -28 -487 0
28 -486 -487 0
-486 -28 487 0
28 486 487 0
-41 -487 0
28 -488 -489 0
488 -28 -489 0
489 -28 -488 0
489 28 488 0
-42 489 0
-63 490 0
-65 490 0
-68 490 0
-486 490 0
-488 490 0
63 65 68 486 488 -490 0
28 -490 -491 0
-28 490 -491 0
-28 -490 491 0
28 490 491 0
-43 491 0
63 492 0
65 492 0
68 492 0
486 492 0
488 492 0
-493 0
-28 492 -494 0
28 -492 -494 0
494 -492 -28 0
28 492 494 0
-44 -494 0
488 -495 -496 0
495 -488 -496 0
-488 -495 496 0
488 495 496 0
-41 -496 0
-65 495 -497 0
65 -495 -497 0
497 -495 -65 0
497 495 65 0
-42 497 0
-63 498 0
-65 498 0
-68 498 0
-488 498 0
63 65 68 488 -498 0
495 -498 -499 0
-495 498 -499 0
-495 -498 499 0
495 498 499 0
-43 499 0
63 500 0
65 500 0
68 500 0
488 500 0
-501 0
-495 500 -502 0
495 -500 -502 0
502 -500 -495 0
495 500 502 0
-44 -502 0
503 -29 -504 0
29 -503 -504 0
-503 -29 504 0
29 503 504 0
-41 -504 0
-472 29 -505 0
472 -29 -505 0
505 -29 -472 0
505 29 472 0
-42 505 0
-92 506 0
-95 506 0
-96 506 0
-371 506 0
-472 506 0
-503 506 0
92 95 96 371 472 503 -506 0
29 -506 -507 0
-29 506 -507 0
-29 -506 507 0
29 506 507 0
-43 507 0
92 508 0
95 508 0
96 508 0
371 508 0
472 508 0
503 508 0
-509 0
-29 508 -510 0
29 -508 -510 0
510 -508 -29 0
29 508 510 0
-44 -510 0
511 -30 -512 0
30 -511 -512 0
-511 -30 512 0
30 511 512 0
-41 -512 0
-48 30 -513 0
48 -30 -513 0
513 -30 -48 0
513 30 48 0
-42 513 0
-45 514 0
-48 514 0
-50 514 0
-511 514 0
45 48 50 511 -514 0
30 -514 -515 0
-30 514 -515 0
-30 -514 515 0
30 514 515 0
-43 515 0
45 516 0
48 516 0
50 516 0
511 516 0
-517 0
-30 516 -518 0
30 -516 -518 0
518 -516 -30 0
30 516 518 0
-44 -518 0
519 -31 -520 0
31 -519 -520 0
-519 -31 520 0
31 519 520 0
-41 -520 0
-48 31 -521 0
48 -31 -521 0
521 -31 -48 0
521 31 48 0
-42 521 0
-45 522 0
-48 522 0
-50 522 0
-519 522 0
45 48 50 519 -522 0
31 -522 -523 0
-31 522 -523 0
-31 -522 523 0
31 522 523 0
-43 523 0
45 524 0
48 524 0
50 524 0
519 524 0
-525 0
-31 524 -526 0
31 -524 -526 0
526 -524 -31 0
31 524 526 0
-44 -526 0
527 -32 -528 0
32 -527 -528 0
-527 -32 528 0
32 527 528 0
-41 -528 0
-519 32 -529 0
519 -32 -529 0
529 -32 -519 0
529 32 519 0
-42 529 0
-45 530 0
-48 530 0
-50 530 0
-519 530 0
-527 530 0
45 48 50 519 527 -530 0
32 -530 -531 0
-32 530 -531 0
-32 -530 531 0
32 530 531 0
-43 531 0
45 532 0
48 532 0
50 532 0
519 532 0
527 532 0
-533 0
-32 532 -534 0
32 -532 -534 0
534 -532 -32 0
32 532 534 0
-44 -534 0
535 -33 -536 0
33 -535 -536 0
-535 -33 536 0
33 535 536 0
-41 -536 0
33 -537 -538 0
537 -33 -538 0
538 -33 -537 0
538 33 537 0
-42 538 0
-209 539 0
-210 539 0
-211 539 0
-212 539 0
-535 539 0
-537 539 0
540 0
33 -539 -541 0
-33 539 -541 0
-33 -539 541 0
33 539 541 0
-43 541 0
209 542 0
210 542 0
211 542 0
212 542 0
535 542 0
537 542 0
-543 0
-33 542 -544 0
33 -542 -544 0
544 -542 -33 0
33 542 544 0
-44 -544 0
537 -545 -546 0
545 -537 -546 0
-537 -545 546 0
537 545 546 0
-41 -546 0
-212 545 -547 0
212 -545 -547 0
547 -545 -212 0
547 545 212 0
-42 547 0
-209 548 0
-210 548 0
-211 548 0
-212 548 0
-537 548 0
209 210 211 212 537 -548 0
545 -548 -549 0
-545 548 -549 0
-545 -548 549 0
545 548 549 0
-43 549 0
209 550 0
210 550 0
211 550 0
212 550 0
537 550 0
-551 0
-545 550 -552 0
545 -550 -552 0
552 -550 -545 0
545 550 552 0
-44 -552 0
553 -34 -554 0
34 -553 -554 0
-553 -34 554 0
34 553 554 0
-41 -554 0
34 -555 -556 0
555 -34 -556 0
556 -34 -555 0
556 34 555 0
-42 556 0
-45 557 0
-50 557 0
-553 557 0
-555 557 0
-558 557 0
45 50 553 555 558 -557 0
34 -557 -559 0
-34 557 -559 0
-34 -557 559 0
34 557 559 0
-43 559 0
45 560 0
50 560 0
553 560 0
555 560 0
558 560 0
-561 0
-34 560 -562 0
34 -560 -562 0
562 -560 -34 0
34 560 562 0
-44 -562 0
555 -563 -564 0
563 -555 -564 0
-555 -563 564 0
555 563 564 0
-41 -564 0
563 -558 -565 0
558 -563 -565 0
565 -563 -558 0
565 563 558 0
-42 565 0
-45 566 0
-50 566 0
-555 566 0
-558 566 0
45 50 555 558 -566 0
563 -566 -567 0
-563 566 -567 0
-563 -566 567 0
563 566 567 0
-43 567 0
45 568 0
50 568 0
555 568 0
558 568 0
-569 0
-563 568 -570 0
563 -568 -570 0
570 -568 -563 0
563 568 570 0
-44 -570 0
558 -571 -572 0
571 -558 -572 0
-558 -571 572 0
558 571 572 0
-41 -572 0
-50 571 -573 0
50 -571 -573 0
573 -571 -50 0
573 571 50 0
-42 573 0
-45 574 0
-50 574 0
-558 574 0
45 50 558 -574 0
571 -574 -575 0
-571 574 -575 0
-571 -574 575 0
571 574 575 0
-43 575 0
45 576 0
50 576 0
558 576 0
-45 -50 -558 -576 0
-571 576 -577 0
571 -576 -577 0
577 -576 -571 0
571 576 577 0
-44 -577 0
578 -35 -579 0
35 -578 -579 0
-578 -35 579 0
35 578 579 0
-41 -579 0
-126 35 -580 0
126 -35 -580 0
580 -35 -126 0
580 35 126 0
-42 580 0
-126 581 0
-127 581 0
-128 581 0
-129 581 0
-130 581 0
-578 581 0
582 0
35 -581 -583 0
-35 581 -583 0
-35 -581 583 0
35 581 583 0
-43 583 0
126 584 0
127 584 0
128 584 0
129 584 0
130 584 0
578 584 0
-585 0
-35 584 -586 0
35 -584 -586 0
586 -584 -35 0
35 584 586 0
-44 -586 0
587 -36 -588 0
36 -587 -588 0
-587 -36 588 0
36 587 588 0
-41 -588 0
36 -589 -590 0
589 -36 -590 0
590 -36 -589 0
590 36 589 0
-42 590 0
-127 591 0
-128 591 0
-129 591 0
-130 591 0
-185 591 0
-187 591 0
-587 591 0
-589 591 0
-592 591 0
-593 591 0
-594 591 0
-595 591 0
-596 591 0
-597 591 0
598 0
36 -591 -599 0
-36 591 -599 0
-36 -591 599 0
36 591 599 0
-43 599 0
127 600 0
128 600 0
129 600 0
130 600 0
185 600 0
187 600 0
587 600 0
589 600 0
592 600 0
593 600 0
594 600 0
595 600 0
596 600 0
597 600 0
-601 0
-36 600 -602 0
36 -600 -602 0
602 -600 -36 0
36 600 602 0
-44 -602 0
589 -603 -604 0
603 -589 -604 0
-589 -603 604 0
589 603 604 0
-41 -604 0
603 -592 -605 0
592 -603 -605 0
605 -603 -592 0
605 603 592 0
-42 605 0
-127 606 0
-128 606 0
-129 606 0
-130 606 0
-185 606 0
-187 606 0
-589 606 0
-592 606 0
-593 606 0
-594 606 0
-595 606 0
-596 606 0
-597 606 0
607 0
603 -606 -608 0
-603 606 -608 0
-603 -606 608 0
603 606 608 0
-43 608 0
127 609 0
128 609 0
129 609 0
130 609 0
185 609 0
187 609 0
589 609 0
592 609 0
593 609 0
594 609 0
595 609 0
596 609 0
597 609 0
-610 0
-603 609 -611 0
603 -609 -611 0
611 -609 -603 0
603 609 611 0
-44 -611 0
592 -612 -613 0
612 -592 -613 0
-592 -612 613 0
592 612 613 0
-41 -613 0
612 -593 -614 0
593 -612 -614 0
614 -612 -593 0
614 612 593 0
-42 614 0
-127 615 0
-128 615 0
-129 615 0
-130 615 0
-185 615 0
-187 615 0
-592 615 0
-593 615 0
-594 615 0
-595 615 0
-596 615 0
-597 615 0
616 0
612 -615 -617 0
-612 615 -617 0
-612 -615 617 0
612 615 617 0
-43 617 0
127 618 0
128 618 0
129 618 0
130 618 0
185 618 0
187 618 0
592 618 0
593 618 0
594 618 0
595 618 0
596 618 0
597 618 0
-619 0
-612 618 -620 0
612 -618 -620 0
620 -618 -612 0
612 618 620 0
-44 -620 0
593 -621 -622 0
621 -593 -622 0
-593 -621 622 0
593 621 622 0
-41 -622 0
621 -594 -623 0
594 -621 -623 0
623 -621 -594 0
623 621 594 0
-42 623 0
-127 624 0
-128 624 0
-129 624 0
-130 624 0
-185 624 0
-187 624 0
-593 624 0
-594 624 0
-595 624 0
-596 624 0
-597 624 0
625 0
621 -624 -626 0
-621 624 -626 0
-621 -624 626 0
621 624 626 0
-43 626 0
127 627 0
128 627 0
129 627 0
130 627 0
185 627 0
187 627 0
593 627 0
594 627 0
595 627 0
596 627 0
597 627 0
-628 0
-621 627 -629 0
621 -627 -629 0
629 -627 -621 0
621 627 629 0
-44 -629 0
594 -630 -631 0
630 -594 -631 0
-594 -630 631 0
594 630 631 0
-41 -631 0
630 -595 -632 0
595 -630 -632 0
632 -630 -595 0
632 630 595 0
-42 632 0
-127 633 0
-128 633 0
-129 633 0
-130 633 0
-185 633 0
-187 633 0
-594 633 0
-595 633 0
-596 633 0
-597 633 0
634 0
630 -633 -635 0
-630 633 -635 0
-630 -633 635 0
630 633 635 0
-43 635 0
127 636 0
128 636 0
129 636 0
130 636 0
185 636 0
187 636 0
594 636 0
595 636 0
596 636 0
597 636 0
-637 0
-630 636 -638 0
630 -636 -638 0
638 -636 -630 0
630 636 638 0
-44 -638 0
595 -639 -640 0
639 -595 -640 0
-595 -639 640 0
595 639 640 0
-41 -640 0
639 -596 -641 0
596 -639 -641 0
641 -639 -596 0
641 639 596 0
-42 641 0
-127 642 0
-128 642 0
-129 642 0
-130 642 0
-185 642 0
-187 642 0
-595 642 0
-596 642 0
-597 642 0
643 0
639 -642 -644 0
-639 642 -644 0
-639 -642 644 0
639 642 644 0
-43 644 0
127 645 0
128 645 0
129 645 0
130 645 0
185 645 0
187 645 0
595 645 0
596 645 0
597 645 0
-646 0
-639 645 -647 0
639 -645 -647 0
647 -645 -639 0
639 645 647 0
-44 -647 0
596 -648 -649 0
648 -596 -649 0
-596 -648 649 0
596 648 649 0
-41 -649 0
648 -597 -650 0
597 -648 -650 0
650 -648 -597 0
650 648 597 0
-42 650 0
-127 651 0
-128 651 0
-129 651 0
-130 651 0
-185 651 0
-187 651 0
-596 651 0
-597 651 0
652 0
648 -651 -653 0
-648 651 -653 0
-648 -651 653 0
648 651 653 0
-43 653 0
127 654 0
128 654 0
129 654 0
130 654 0
185 654 0
187 654 0
596 654 0
597 654 0
-655 0
-648 654 -656 0
648 -654 -656 0
656 -654 -648 0
648 654 656 0
-44 -656 0
597 -657 -658 0
657 -597 -658 0
-597 -657 658 0
597 657 658 0
-41 -658 0
-185 657 -659 0
185 -657 -659 0
659 -657 -185 0
659 657 185 0
-42 659 0
-127 660 0
-128 660 0
-129 660 0
-130 660 0
-185 660 0
-187 660 0
-597 660 0
661 0
657 -660 -662 0
-657 660 -662 0
-657 -660 662 0
657 660 662 0
-43 662 0
127 663 0
128 663 0
129 663 0
130 663 0
185 663 0
187 663 0
597 663 0
-664 0
-657 663 -665 0
657 -663 -665 0
665 -663 -657 0
657 663 665 0
-44 -665 0
666 -37 -667 0
37 -666 -667 0
-666 -37 667 0
37 666 667 0
-41 -667 0
37 -668 -669 0
668 -37 -669 0
669 -37 -668 0
669 37 668 0
-42 669 0
-208 670 0
-209 670 0
-210 670 0
-211 670 0
-212 670 0
-666 670 0
-668 670 0
-671 670 0
672 0
37 -670 -673 0
-37 670 -673 0
-37 -670 673 0
37 670 673 0
-43 673 0
208 674 0
209 674 0
210 674 0
211 674 0
212 674 0
666 674 0
668 674 0
671 674 0
-675 0
-37 674 -676 0
37 -674 -676 0
676 -674 -37 0
37 674 676 0
-44 -676 0
668 -677 -678 0
677 -668 -678 0
-668 -677 678 0
668 677 678 0
-41 -678 0
677 -671 -679 0
671 -677 -679 0
679 -677 -671 0
679 677 671 0
-42 679 0
-208 680 0
-209 680 0
-210 680 0
-211 680 0
-212 680 0
-668 680 0
-671 680 0
681 0
677 -680 -682 0
-677 680 -682 0
-677 -680 682 0
677 680 682 0
-43 682 0
208 683 0
209 683 0
210 683 0
211 683 0
212 683 0
668 683 0
671 683 0
-684 0
-677 683 -685 0
677 -683 -685 0
685 -683 -677 0
677 683 685 0
-44 -685 0
671 -686 -687 0
686 -671 -687 0
-671 -686 687 0
671 686 687 0
-41 -687 0
-208 686 -688 0
208 -686 -688 0
688 -686 -208 0
688 686 208 0
-42 688 0
-208 689 0
-209 689 0
-210 689 0
-211 689 0
-212 689 0
-671 689 0
690 0
686 -689 -691 0
-686 689 -691 0
-686 -689 691 0
686 689 691 0
-43 691 0
208 692 0
209 692 0
210 692 0
211 692 0
212 692 0
671 692 0
-693 0
-686 692 -694 0
686 -692 -694 0
694 -692 -686 0
686 692 694 0
-44 -694 0
695 -38 -696 0
38 -695 -696 0
-695 -38 696 0
38 695 696 0
-41 -696 0
38 -697 -698 0
697 -38 -698 0
698 -38 -697 0
698 38 697 0
-42 698 0
-127 699 0
-128 699 0
-129 699 0
-130 699 0
-185 699 0
-187 699 0
-595 699 0
-596 699 0
-597 699 0
-695 699 0
-697 699 0
-700 699 0
701 0
38 -699 -702 0
-38 699 -702 0
-38 -699 702 0
38 699 702 0
-43 702 0
127 703 0
128 703 0
129 703 0
130 703 0
185 703 0
187 703 0
595 703 0
596 703 0
597 703 0
695 703 0
697 703 0
700 703 0
-704 0
-38 703 -705 0
38 -703 -705 0
705 -703 -38 0
38 703 705 0
-44 -705 0
697 -706 -707 0
706 -697 -707 0
-697 -706 707 0
697 706 707 0
-41 -707 0
706 -700 -708 0
700 -706 -708 0
708 -706 -700 0
708 706 700 0
-42 708 0
-127 709 0
-128 709 0
-129 709 0
-130 709 0
-185 709 0
-187 709 0
-595 709 0
-596 709 0
-597 709 0
-697 709 0
-700 709 0
710 0
706 -709 -711 0
-706 709 -711 0
-706 -709 711 0
706 709 711 0
-43 711 0
127 712 0
128 712 0
129 712 0
130 712 0
185 712 0
187 712 0
595 712 0
596 712 0
597 712 0
697 712 0
700 712 0
-713 0
-706 712 -714 0
706 -712 -714 0
714 -712 -706 0
706 712 714 0
-44 -714 0
700 -715 -716 0
715 -700 -716 0
-700 -715 716 0
700 715 716 0
-41 -716 0
-595 715 -717 0
595 -715 -717 0
717 -715 -595 0
717 715 595 0
-42 717 0
-127 718 0
-128 718 0
-129 718 0
-130 718 0
-185 718 0
-187 718 0
-595 718 0
-596 718 0
-597 718 0
-700 718 0
719 0
715 -718 -720 0
-715 718 -720 0
-715 -718 720 0
715 718 720 0
-43 720 0
127 721 0
128 721 0
129 721 0
130 721 0
185 721 0
187 721 0
595 721 0
596 721 0
597 721 0
700 721 0
-722 0
-715 721 -723 0
715 -721 -723 0
723 -721 -715 0
715 721 723 0
-44 -723 0
724 -39 -725 0
39 -724 -725 0
-724 -39 725 0
39 724 725 0
-41 -725 0
-558 39 -726 0
558 -39 -726 0
726 -39 -558 0
726 39 558 0
-42 726 0
-45 727 0
-50 727 0
-558 727 0
-724 727 0
45 50 558 724 -727 0
39 -727 -728 0
-39 727 -728 0
-39 -727 728 0
39 727 728 0
-43 728 0
45 729 0
50 729 0
558 729 0
724 729 0
-730 0
-39 729 -731 0
39 -729 -731 0
731 -729 -39 0
39 729 731 0
-44 -731 0
732 -40 -733 0
40 -732 -733 0
-732 -40 733 0
40 732 733 0
-41 -733 0
40 -734 -735 0
734 -40 -735 0
735 -40 -734 0
735 40 734 0
-42 735 0
-63 736 0
-65 736 0
-68 736 0
-488 736 0
-732 736 0
-734 736 0
63 65 68 488 732 734 -736 0
40 -736 -737 0
-40 736 -737 0
-40 -736 737 0
40 736 737 0
-43 737 0
63 738 0
65 738 0
68 738 0
488 738 0
732 738 0
734 738 0
-739 0
-40 738 -740 0
40 -738 -740 0
740 -738 -40 0
40 738 740 0
-44 -740 0
734 -741 -742 0
741 -734 -742 0
-734 -741 742 0
734 741 742 0
-41 -742 0
-488 741 -743 0
488 -741 -743 0
743 -741 -488 0
743 741 488 0
-42 743 0
-63 744 0
-65 744 0
-68 744 0
-488 744 0
-734 744 0
63 65 68 488 734 -744 0
741 -744 -745 0
-741 744 -745 0
-741 -744 745 0
741 744 745 0
-43 745 0
63 746 0
65 746 0
68 746 0
488 746 0
734 746 0
-747 0
-741 746 -748 0
741 -746 -748 0
748 -746 -741 0
741 746 748 0
-44 -748 0
45 0
48 0
-50 0
63 0
65 0
-68 0
-82 0
-90 0
-92 0
-95 0
96 0
-120 0
-122 0
-125 0
-126 0
-127 0
-128 0
-129 0
130 0
-185 0
187 0
-203 0
205 0
-208 0
-209 0
-210 0
211 0
212 0
258 0
-260 0
268 0
277 0
-279 0
-292 0
294 0
-310 0
318 0
326 0
328 0
-345 0
-347 0
-350 0
371 0
379 0
381 0
-384 0
385 0
-386 0
387 0
-388 0
-436 0
438 0
453 0
-455 0
470 0
472 0
486 0
-488 0
-503 0
-511 0
519 0
527 0
535 0
-537 0
-553 0
-555 0
-558 0
578 0
-587 0
589 0
-592 0
-593 0
-594 0
595 0
596 0
597 0
666 0
-668 0
-671 0
-695 0
697 0
700 0
724 0
-732 0
-734 0
